NAME: I15814-n31-k6
COMMENT : (Fake et al, No of trucks: 6, Optimal value: )
TYPE : CVRP
DIMENSION : 31
EDGE_WEIGHT_TYPE : EUC_2D
CAPACITY : 17
NODE_COORD_SECTION
1 649 398
2 947 612
3 698 486
4 324 671
5 561 583
6 145 909
7 600 125
8 291 610
9 686 760
10 756 458
11 886 508
12 24 650
13 40 572
14 306 924
15 143 918
16 766 776
17 304 887
18 134 176
19 241 973
20 428 442
21 596 731
22 267 169
23 515 680
24 305 64
25 559 628
26 237 592
27 363 697
28 267 715
29 325 922
30 192 601
31 810 377
DEMAND_SECTION
1 0
2 4
3 1
4 1
5 1
6 2
7 5
8 1
9 2
10 1
11 5
12 4
13 5
14 4
15 3
16 3
17 3
18 3
19 4
20 4
21 4
22 4
23 2
24 2
25 5
26 1
27 3
28 3
29 1
30 5
31 5
DEPOT_SECTION
 1
 -1
 EOF 